3 3 2
25 1 4 0 140 1 28 2 49 0 85 1 105 0 107 1 26 0 50 2 43 1 41 0 89 2 60 1 191 0 7 2 20 0 123 2 167 0 60 2 175 0 171 1 49 0 138 2 80 1 182 
25 0 189 1 97 2 112 0 160 1 40 0 109 2 40 0 141 2 188 1 102 0 172 2 71 0 80 1 15 2 107 1 75 2 63 0 25 1 86 2 26 1 117 0 174 1 181 0 27 2 41 
25 1 56 0 3 1 158 2 193 0 19 1 191 2 61 0 85 2 132 0 153 1 89 2 114 1 127 2 71 1 85 0 113 2 39 0 76 1 62 2 183 0 112 1 150 0 177 1 19 2 192 

-------------
